TCS_Benchmarks/redos_fix/corpus1_output_distinct_1433_1432_15_0.smt2
(set-logic QF_S)
(declare-const x String)
(assert (str.in.re x (re.inter  (re.++ (re.+ (re.union (re.range "\u{00}" "\u{08}") (re.range "\u{0e}" "\u{1f}") (re.range "\u{21}" "\u{84}") (re.range "\u{86}" "\u{9f}") (re.range "\u{a1}" "\u{ff}")) ) (re.+  (re.union (re.range "\u{41}" "\u{5a}") (re.union  (str.to.re "\u{2e}") (re.range "\u{61}" "\u{7a}"))) ))  (re.++ (re.+ (re.union (re.range "\u{00}" "\u{08}") (re.range "\u{0e}" "\u{1f}") (re.range "\u{21}" "\u{84}") (re.range "\u{86}" "\u{9f}") (re.range "\u{a1}" "\u{ff}")) ) (re.++  (re.++  (str.to.re "\u{2d}") (re.++ (re.opt  (re.++  (str.to.re "\u{74}") (re.++  (str.to.re "\u{6d}") (re.++  (str.to.re "\u{70}")  (str.to.re "\u{2d}")))) ) (re.++ (re.+ (re.union (re.range "\u{00}" "\u{08}") (re.range "\u{0e}" "\u{1f}") (re.range "\u{21}" "\u{84}") (re.range "\u{86}" "\u{9f}") (re.range "\u{a1}" "\u{ff}")) )  (str.to.re "\u{2d}")))) (re.+  (re.union (re.range "\u{41}" "\u{5a}") (re.union  (str.to.re "\u{2e}") (re.range "\u{61}" "\u{7a}"))) ))) )))
(check-sat)
(get-model)