TCS_Benchmarks/redos_fix/corpus1_output_distinct_1433_1432_15_0.txt
([\S]+)([A-Z.a-z]+)
([\S]+)(-(tmp-)?[\S]+-)([A-Z.a-z]+)